
2024 11 28 09 54 00-2024 11 28 22 19 00

2024 11 29 09 54 00-2024 11 29 22 20 00

2024 11 30 09 54 00-2024 11 30 22 21 00



2024 12 01 09 54 00-2024 12 01 22 22 00

2024 12 02 09 54 00-2024 12 02 22 22 00

2024 12 03 09 54 00-2024 12 03 22 23 00

2024 12 04 09 54 00-2024 12 04 22 24 00

2024 12 05 09 54 00-2024 12 05 22 25 00

2024 12 06 09 54 00-2024 12 06 22 25 00

2024 12 07 09 54 00-2024 12 07 22 26 00

2024 12 08 09 55 00-2024 12 08 22 27 00

2024 12 09 09 55 00-2024 12 09 22 27 00

2024 12 10 09 55 00-2024 12 10 22 28 00

2024 12 11 09 55 00-2024 12 11 22 29 00

2024 12 12 09 56 00-2024 12 12 22 29 00

2024 12 13 09 56 00-2024 12 13 22 30 00

2024 12 14 09 56 00-2024 12 14 22 31 00

2024 12 15 09 57 00-2024 12 15 22 31 00

2024 12 16 09 57 00-2024 12 16 22 32 00

2024 12 17 09 57 00-2024 12 17 22 33 00

2024 12 18 09 58 00-2024 12 18 22 33 00

2024 12 19 09 58 00-2024 12 19 22 34 00

2024 12 20 09 59 00-2024 12 20 22 34 00

2024 12 21 09 59 00-2024 12 21 22 35 00

2024 12 22 10 00 00-2024 12 22 22 35 00

2024 12 23 10 00 00-2024 12 23 22 35 00

2024 12 24 10 01 00-2024 12 24 22 36 00

2024 12 25 10 01 00-2024 12 25 22 36 00

2024 12 26 10 02 00-2024 12 26 22 37 00

2024 12 27 10 02 00-2024 12 27 22 37 00

2024 12 28 10 03 00-2024 12 28 22 37 00

2024 12 29 10 04 00-2024 12 29 22 38 00

2024 12 30 10 04 00-2024 12 30 22 38 00

2024 12 31 10 05 00-2024 12 31 22 38 00





2025 01 01 10 06 00-2025 01 01 22 38 00

2025 01 02 10 06 00-2025 01 02 22 39 00

2025 01 03 10 07 00-2025 01 03 22 39 00

2025 01 04 10 08 00-2025 01 04 22 39 00

2025 01 05 10 09 00-2025 01 05 22 39 00

2025 01 06 10 09 00-2025 01 06 22 39 00

2025 01 07 10 10 00-2025 01 07 22 39 00

2025 01 08 10 11 00-2025 01 08 22 39 00

2025 01 09 10 12 00-2025 01 09 22 39 00


2025 01 10 10 13 00-2025 01 10 22 39 00

2025 01 11 10 13 00-2025 01 11 22 39 00

2025 01 12 10 14 00-2025 01 12 22 39 00

2025 01 13 10 15 00-2025 01 13 22 39 00

2025 01 14 10 16 00-2025 01 14 22 39 00

2025 01 15 10 17 00-2025 01 15 22 39 00

2025 01 16 10 18 00-2025 01 16 22 39 00

2025 01 17 10 18 00-2025 01 17 22 38 00

2025 01 18 10 19 00-2025 01 18 22 38 00

2025 01 19 10 20 00-2025 01 19 22 38 00


2025 01 20 10 21 00-2025 01 20 22 38 00

2025 01 21 10 22 00-2025 01 21 22 37 00

2025 01 22 10 23 00-2025 01 22 22 37 00

2025 01 23 10 23 00-2025 01 23 22 37 00

2025 01 24 10 24 00-2025 01 24 22 36 00

2025 01 25 10 25 00-2025 01 25 22 36 00

2025 01 26 10 26 00-2025 01 26 22 35 00

2025 01 27 10 27 00-2025 01 27 22 35 00

2025 01 28 10 28 00-2025 01 28 22 34 00

2025 01 29 10 29 00-2025 01 29 22 34 00

2025 01 30 10 29 00-2025 01 30 22 33 00









